p edge 755 754
e 1 391
e 1 739
e 1 312
e 2 723
e 2 533
e 3 581
e 3 400
e 4 366
e 4 682
e 4 342
e 5 655
e 6 705
e 6 110
e 7 90
e 7 489
e 7 361
e 8 481
e 8 73
e 9 542
e 9 684
e 10 652
e 10 575
e 10 115
e 11 115
e 12 346
e 12 697
e 13 26
e 14 282
e 15 251
e 16 563
e 16 96
e 17 229
e 18 143
e 19 755
e 20 398
e 20 115
e 21 713
e 21 590
e 22 347
e 22 603
e 23 105
e 24 693
e 25 229
e 25 676
e 26 423
e 26 151
e 26 48
e 27 559
e 28 51
e 28 547
e 28 679
e 28 86
e 29 340
e 29 119
e 30 498
e 30 399
e 31 38
e 31 96
e 32 90
e 33 36
e 33 248
e 33 490
e 33 339
e 34 605
e 35 433
e 37 559
e 37 379
e 39 224
e 40 392
e 40 272
e 40 112
e 41 609
e 41 374
e 41 367
e 42 239
e 43 698
e 43 316
e 44 518
e 45 130
e 45 748
e 46 678
e 46 261
e 46 726
e 47 173
e 47 678
e 48 251
e 49 94
e 49 113
e 50 617
e 52 101
e 52 606
e 52 750
e 52 187
e 52 267
e 53 258
e 53 95
e 54 575
e 55 204
e 56 526
e 56 690
e 57 734
e 58 242
e 58 235
e 59 605
e 59 615
e 59 521
e 60 246
e 60 223
e 60 594
e 61 486
e 61 411
e 61 169
e 62 666
e 63 532
e 63 604
e 63 322
e 64 426
e 64 212
e 65 719
e 66 326
e 66 464
e 66 220
e 66 425
e 67 559
e 68 260
e 68 217
e 69 430
e 70 235
e 70 619
e 70 692
e 71 407
e 71 191
e 71 358
e 71 251
e 72 172
e 72 710
e 72 442
e 72 681
e 73 491
e 73 527
e 74 211
e 74 624
e 75 324
e 75 626
e 75 467
e 76 103
e 76 551
e 77 226
e 78 548
e 78 115
e 78 708
e 79 460
e 80 451
e 80 731
e 81 146
e 81 403
e 81 88
e 82 178
e 82 239
e 83 521
e 83 554
e 83 142
e 84 629
e 84 430
e 85 604
e 86 659
e 87 675
e 87 291
e 88 750
e 89 285
e 91 164
e 92 715
e 93 433
e 94 305
e 95 105
e 95 650
e 96 743
e 96 241
e 97 512
e 97 100
e 98 349
e 99 285
e 100 120
e 100 675
e 101 530
e 101 555
e 102 160
e 103 577
e 104 180
e 104 390
e 105 116
e 106 702
e 106 363
e 107 665
e 107 138
e 108 221
e 109 376
e 109 641
e 110 667
e 110 436
e 111 708
e 111 392
e 112 348
e 112 611
e 113 157
e 114 345
e 115 349
e 117 390
e 118 351
e 118 699
e 119 666
e 119 721
e 119 395
e 121 368
e 122 353
e 123 414
e 123 584
e 124 462
e 124 254
e 125 256
e 125 468
e 126 619
e 127 271
e 128 141
e 128 730
e 128 738
e 129 412
e 129 132
e 131 697
e 131 568
e 131 479
e 131 638
e 132 676
e 133 471
e 134 342
e 134 653
e 135 406
e 135 688
e 136 503
e 136 656
e 136 358
e 137 468
e 137 476
e 138 271
e 139 439
e 139 473
e 140 550
e 142 299
e 142 155
e 143 281
e 143 253
e 144 460
e 144 433
e 145 388
e 147 278
e 147 272
e 148 566
e 149 301
e 150 644
e 151 204
e 152 566
e 152 250
e 152 672
e 153 693
e 153 559
e 154 634
e 155 237
e 156 371
e 157 384
e 157 711
e 157 724
e 158 592
e 159 499
e 159 636
e 159 243
e 160 567
e 160 279
e 161 197
e 162 364
e 162 614
e 162 292
e 162 449
e 163 457
e 163 487
e 164 314
e 164 274
e 164 719
e 165 722
e 166 386
e 166 269
e 166 453
e 167 192
e 167 243
e 167 182
e 168 222
e 168 474
e 169 389
e 170 427
e 170 742
e 170 479
e 171 569
e 171 417
e 174 741
e 174 675
e 175 234
e 176 214
e 176 547
e 177 297
e 179 694
e 179 631
e 181 748
e 181 713
e 182 423
e 183 371
e 183 268
e 183 595
e 184 703
e 184 755
e 185 285
e 186 465
e 187 473
e 188 433
e 188 286
e 189 651
e 190 374
e 191 616
e 193 380
e 194 364
e 195 511
e 195 541
e 195 600
e 195 591
e 195 261
e 196 215
e 197 540
e 197 734
e 197 431
e 198 676
e 198 409
e 199 687
e 200 747
e 200 736
e 201 274
e 202 687
e 202 373
e 203 719
e 204 382
e 204 231
e 205 228
e 205 472
e 206 448
e 206 731
e 207 700
e 208 664
e 209 352
e 209 704
e 210 634
e 210 686
e 212 431
e 213 651
e 215 747
e 216 620
e 216 367
e 216 294
e 216 441
e 217 440
e 217 336
e 217 755
e 218 265
e 218 672
e 219 493
e 219 551
e 219 692
e 219 524
e 220 496
e 220 724
e 221 251
e 223 304
e 224 389
e 225 238
e 225 298
e 225 436
e 225 500
e 225 280
e 226 480
e 226 618
e 226 500
e 227 277
e 228 482
e 229 234
e 230 656
e 231 463
e 231 318
e 232 705
e 233 571
e 234 313
e 235 488
e 236 475
e 236 603
e 237 393
e 239 702
e 240 333
e 241 623
e 241 293
e 241 279
e 243 564
e 244 492
e 244 286
e 245 643
e 245 642
e 245 282
e 246 315
e 247 402
e 247 581
e 249 509
e 249 485
e 250 410
e 251 487
e 252 324
e 253 584
e 253 593
e 254 266
e 254 653
e 255 539
e 255 707
e 255 274
e 256 474
e 256 699
e 256 571
e 257 411
e 258 338
e 258 501
e 259 275
e 262 581
e 263 736
e 264 323
e 266 461
e 267 389
e 268 633
e 268 717
e 269 688
e 270 287
e 270 370
e 270 513
e 271 677
e 271 518
e 272 428
e 272 582
e 272 644
e 272 519
e 272 595
e 273 512
e 274 355
e 275 406
e 276 659
e 277 470
e 279 344
e 280 447
e 282 451
e 283 575
e 284 434
e 284 653
e 284 534
e 285 552
e 286 337
e 286 712
e 286 360
e 288 599
e 289 669
e 289 620
e 290 439
e 291 528
e 292 660
e 293 466
e 293 731
e 294 312
e 295 598
e 296 409
e 297 371
e 300 522
e 301 362
e 301 446
e 302 506
e 303 733
e 303 568
e 304 601
e 306 377
e 306 361
e 306 400
e 307 664
e 307 680
e 308 648
e 308 732
e 308 520
e 309 583
e 309 416
e 310 661
e 310 627
e 311 643
e 313 359
e 315 372
e 316 374
e 317 520
e 317 683
e 318 689
e 319 697
e 320 450
e 320 409
e 321 433
e 322 641
e 322 718
e 322 639
e 322 680
e 323 611
e 324 536
e 324 469
e 325 610
e 325 454
e 327 395
e 328 344
e 328 554
e 329 391
e 330 671
e 330 477
e 331 611
e 332 397
e 332 501
e 333 480
e 334 542
e 335 419
e 335 413
e 336 389
e 337 409
e 339 728
e 339 418
e 339 556
e 340 550
e 341 706
e 341 422
e 343 567
e 344 635
e 345 399
e 345 685
e 347 465
e 348 538
e 349 357
e 350 739
e 352 673
e 353 550
e 354 445
e 354 747
e 356 657
e 359 472
e 360 657
e 363 514
e 363 574
e 365 465
e 368 740
e 369 737
e 372 401
e 373 442
e 375 520
e 378 655
e 379 658
e 379 597
e 380 520
e 381 624
e 383 385
e 383 456
e 383 449
e 387 553
e 388 544
e 389 681
e 390 590
e 390 489
e 393 711
e 394 714
e 394 507
e 395 591
e 396 614
e 399 431
e 400 430
e 404 754
e 404 607
e 405 498
e 406 646
e 408 546
e 410 522
e 410 507
e 411 580
e 413 535
e 413 714
e 414 624
e 415 696
e 415 742
e 416 562
e 417 510
e 417 574
e 417 636
e 418 425
e 419 683
e 420 487
e 421 523
e 421 479
e 422 686
e 424 563
e 425 467
e 426 478
e 429 541
e 430 552
e 432 622
e 434 435
e 434 516
e 434 586
e 434 650
e 437 517
e 437 562
e 438 691
e 438 575
e 439 659
e 441 695
e 441 594
e 442 513
e 443 553
e 444 748
e 445 611
e 446 707
e 447 719
e 447 722
e 447 498
e 449 557
e 452 688
e 453 477
e 453 740
e 453 692
e 454 549
e 454 628
e 455 666
e 457 562
e 458 530
e 459 463
e 460 545
e 461 487
e 466 585
e 469 651
e 470 654
e 470 637
e 471 568
e 474 546
e 476 531
e 476 684
e 478 556
e 482 709
e 483 725
e 484 647
e 485 508
e 485 524
e 485 754
e 489 612
e 493 576
e 494 686
e 495 498
e 497 534
e 497 642
e 498 572
e 499 596
e 501 518
e 502 553
e 504 741
e 505 585
e 506 591
e 515 613
e 515 544
e 517 737
e 519 655
e 522 657
e 524 621
e 525 747
e 527 670
e 528 680
e 529 662
e 531 749
e 533 552
e 536 579
e 537 746
e 542 662
e 543 550
e 544 684
e 544 573
e 547 638
e 550 716
e 552 753
e 553 564
e 554 561
e 556 603
e 557 721
e 558 668
e 560 753
e 560 618
e 565 690
e 565 723
e 566 597
e 567 668
e 568 663
e 570 589
e 570 678
e 571 751
e 573 610
e 577 637
e 578 607
e 578 679
e 579 598
e 583 631
e 587 714
e 588 749
e 590 645
e 592 736
e 593 609
e 594 622
e 598 632
e 599 608
e 599 752
e 599 713
e 602 754
e 610 617
e 621 720
e 622 671
e 625 635
e 626 745
e 627 670
e 628 737
e 630 674
e 635 649
e 639 729
e 640 734
e 645 746
e 647 661
e 649 680
e 650 674
e 670 735
e 672 705
e 681 735
e 683 701
e 685 696
e 686 753
e 687 727
e 689 744
e 694 738
e 696 715
e 699 700
e 704 725
e 704 737
e 714 736
e 726 755
